c Three pigeons cannot occupy two holes with at most one pigeon per hole
c Variables: x_11=1 x_12=2 x_21=3 x_22=4 x_31=5 x_32=6
p cnf 6 9
1 2 0
3 4 0
5 6 0
-1 -3 0
-1 -5 0
-3 -5 0
-2 -4 0
-2 -6 0
-4 -6 0
